50
1 0 27
2 0 4
2 1 40
3 0 25
3 1 30
3 2 20
4 0 21
4 1 2
4 2 39
4 3 34
5 0 50
5 1 41
5 2 12
5 3 18
5 4 31
6 0 24
6 1 16
6 2 4
6 3 29
6 4 11
6 5 28
7 0 33
7 1 27
7 2 21
7 3 24
7 4 46
7 5 18
7 6 36
8 0 15
8 1 46
8 2 48
8 3 38
8 4 4
8 5 6
8 6 37
8 7 34
9 0 1
9 1 38
9 2 29
9 3 17
9 4 30
9 5 25
9 6 48
9 7 39
9 8 7
10 0 41
10 1 8
10 2 14
10 3 35
10 4 3
10 5 23
10 6 12
10 7 25
10 8 42
10 9 33
11 0 32
11 1 18
11 2 18
11 3 29
11 4 36
11 5 41
11 6 48
11 7 4
11 8 9
11 9 27
11 10 25
12 0 5
12 1 17
12 2 45
12 3 47
12 4 22
12 5 22
12 6 15
12 7 50
12 8 18
12 9 28
12 10 34
12 11 28
13 0 21
13 1 40
13 2 24
13 3 27
13 4 48
13 5 10
13 6 41
13 7 4
13 8 4
13 9 9
13 10 45
13 11 29
13 12 9
14 0 5
14 1 22
14 2 38
14 3 16
14 4 19
14 5 4
14 6 33
14 7 4
14 8 5
14 9 6
14 10 25
14 11 22
14 12 9
14 13 25
15 0 36
15 1 5
15 2 31
15 3 14
15 4 27
15 5 13
15 6 8
15 7 11
15 8 50
15 9 25
15 10 27
15 11 34
15 12 9
15 13 29
15 14 9
16 0 18
16 1 7
16 2 10
16 3 40
16 4 16
16 5 40
16 6 3
16 7 32
16 8 34
16 9 36
16 10 30
16 11 1
16 12 27
16 13 30
16 14 22
16 15 17
17 0 4
17 1 44
17 2 29
17 3 5
17 4 16
17 5 41
17 6 14
17 7 10
17 8 13
17 9 37
17 10 36
17 11 40
17 12 5
17 13 35
17 14 43
17 15 21
17 16 12
18 0 27
18 1 31
18 2 6
18 3 26
18 4 42
18 5 40
18 6 39
18 7 50
18 8 36
18 9 10
18 10 49
18 11 39
18 12 13
18 13 36
18 14 6
18 15 9
18 16 42
18 17 26
19 0 20
19 1 48
19 2 49
19 3 32
19 4 2
19 5 32
19 6 11
19 7 17
19 8 50
19 9 42
19 10 15
19 11 22
19 12 41
19 13 11
19 14 28
19 15 7
19 16 16
19 17 41
19 18 20
20 0 3
20 1 27
20 2 20
20 3 9
20 4 49
20 5 4
20 6 15
20 7 44
20 8 37
20 9 22
20 10 50
20 11 23
20 12 45
20 13 21
20 14 6
20 15 30
20 16 49
20 17 20
20 18 48
20 19 30
21 0 2
21 1 8
21 2 21
21 3 9
21 4 28
21 5 35
21 6 3
21 7 36
21 8 11
21 9 43
21 10 35
21 11 8
21 12 19
21 13 49
21 14 36
21 15 23
21 16 24
21 17 1
21 18 8
21 19 32
21 20 12
22 0 22
22 1 39
22 2 25
22 3 45
22 4 5
22 5 16
22 6 28
22 7 18
22 8 2
22 9 15
22 10 49
22 11 20
22 12 29
22 13 48
22 14 28
22 15 4
22 16 16
22 17 22
22 18 35
22 19 48
22 20 47
22 21 10
23 0 18
23 1 5
23 2 47
23 3 14
23 4 4
23 5 27
23 6 29
23 7 47
23 8 41
23 9 49
23 10 40
23 11 33
23 12 6
23 13 35
23 14 36
23 15 30
23 16 26
23 17 10
23 18 9
23 19 9
23 20 49
23 21 41
23 22 17
24 0 3
24 1 48
24 2 20
24 3 10
24 4 48
24 5 34
24 6 46
24 7 42
24 8 43
24 9 8
24 10 16
24 11 16
24 12 37
24 13 13
24 14 15
24 15 48
24 16 39
24 17 15
24 18 35
24 19 12
24 20 33
24 21 7
24 22 26
24 23 21
25 0 25
25 1 16
25 2 2
25 3 43
25 4 19
25 5 50
25 6 18
25 7 31
25 8 39
25 9 33
25 10 20
25 11 29
25 12 49
25 13 40
25 14 8
25 15 16
25 16 32
25 17 8
25 18 42
25 19 33
25 20 50
25 21 13
25 22 2
25 23 11
25 24 5
26 0 46
26 1 4
26 2 44
26 3 23
26 4 30
26 5 22
26 6 23
26 7 41
26 8 18
26 9 30
26 10 19
26 11 46
26 12 36
26 13 37
26 14 10
26 15 22
26 16 8
26 17 12
26 18 40
26 19 27
26 20 25
26 21 2
26 22 5
26 23 38
26 24 34
26 25 2
27 0 19
27 1 8
27 2 37
27 3 5
27 4 34
27 5 32
27 6 45
27 7 28
27 8 30
27 9 21
27 10 1
27 11 17
27 12 38
27 13 35
27 14 49
27 15 32
27 16 35
27 17 46
27 18 22
27 19 8
27 20 40
27 21 32
27 22 26
27 23 19
27 24 34
27 25 13
27 26 3
28 0 9
28 1 6
28 2 34
28 3 11
28 4 37
28 5 16
28 6 18
28 7 12
28 8 39
28 9 15
28 10 17
28 11 10
28 12 17
28 13 28
28 14 23
28 15 47
28 16 40
28 17 13
28 18 19
28 19 47
28 20 42
28 21 42
28 22 27
28 23 27
28 24 13
28 25 24
28 26 5
28 27 39
29 0 22
29 1 50
29 2 16
29 3 42
29 4 15
29 5 6
29 6 46
29 7 44
29 8 10
29 9 4
29 10 36
29 11 31
29 12 14
29 13 7
29 14 10
29 15 2
29 16 10
29 17 24
29 18 46
29 19 12
29 20 50
29 21 14
29 22 9
29 23 40
29 24 34
29 25 14
29 26 42
29 27 44
29 28 1
30 0 5
30 1 31
30 2 17
30 3 6
30 4 42
30 5 12
30 6 41
30 7 13
30 8 46
30 9 5
30 10 37
30 11 45
30 12 19
30 13 13
30 14 15
30 15 29
30 16 36
30 17 9
30 18 9
30 19 21
30 20 8
30 21 26
30 22 26
30 23 30
30 24 50
30 25 21
30 26 15
30 27 23
30 28 22
30 29 37
31 0 7
31 1 31
31 2 36
31 3 43
31 4 22
31 5 2
31 6 49
31 7 44
31 8 45
31 9 41
31 10 44
31 11 34
31 12 16
31 13 31
31 14 28
31 15 38
31 16 43
31 17 16
31 18 21
31 19 12
31 20 21
31 21 38
31 22 38
31 23 12
31 24 33
31 25 35
31 26 42
31 27 14
31 28 38
31 29 5
31 30 46
32 0 45
32 1 17
32 2 21
32 3 47
32 4 22
32 5 26
32 6 37
32 7 21
32 8 17
32 9 22
32 10 31
32 11 14
32 12 50
32 13 44
32 14 9
32 15 49
32 16 36
32 17 17
32 18 38
32 19 47
32 20 3
32 21 45
32 22 13
32 23 18
32 24 11
32 25 1
32 26 37
32 27 41
32 28 34
32 29 28
32 30 2
32 31 5
33 0 31
33 1 8
33 2 41
33 3 19
33 4 32
33 5 30
33 6 29
33 7 30
33 8 39
33 9 25
33 10 5
33 11 40
33 12 7
33 13 47
33 14 20
33 15 16
33 16 11
33 17 32
33 18 34
33 19 33
33 20 4
33 21 33
33 22 12
33 23 11
33 24 34
33 25 50
33 26 17
33 27 2
33 28 16
33 29 21
33 30 13
33 31 20
33 32 38
34 0 17
34 1 8
34 2 1
34 3 25
34 4 38
34 5 26
34 6 50
34 7 23
34 8 20
34 9 17
34 10 40
34 11 40
34 12 32
34 13 4
34 14 6
34 15 44
34 16 50
34 17 11
34 18 3
34 19 17
34 20 45
34 21 7
34 22 15
34 23 43
34 24 21
34 25 16
34 26 1
34 27 21
34 28 48
34 29 3
34 30 40
34 31 32
34 32 9
34 33 31
35 0 34
35 1 29
35 2 23
35 3 11
35 4 18
35 5 26
35 6 49
35 7 3
35 8 41
35 9 13
35 10 5
35 11 39
35 12 5
35 13 35
35 14 15
35 15 43
35 16 7
35 17 20
35 18 23
35 19 24
35 20 29
35 21 42
35 22 41
35 23 24
35 24 9
35 25 38
35 26 50
35 27 2
35 28 5
35 29 46
35 30 40
35 31 11
35 32 20
35 33 46
35 34 1
36 0 39
36 1 13
36 2 50
36 3 9
36 4 20
36 5 49
36 6 11
36 7 46
36 8 43
36 9 29
36 10 1
36 11 29
36 12 15
36 13 39
36 14 14
36 15 10
36 16 36
36 17 26
36 18 25
36 19 2
36 20 29
36 21 8
36 22 23
36 23 47
36 24 49
36 25 26
36 26 29
36 27 35
36 28 29
36 29 40
36 30 47
36 31 48
36 32 36
36 33 21
36 34 33
36 35 14
37 0 49
37 1 16
37 2 38
37 3 25
37 4 13
37 5 46
37 6 19
37 7 18
37 8 19
37 9 11
37 10 15
37 11 23
37 12 8
37 13 22
37 14 24
37 15 23
37 16 14
37 17 15
37 18 1
37 19 15
37 20 37
37 21 45
37 22 38
37 23 3
37 24 47
37 25 26
37 26 21
37 27 25
37 28 45
37 29 5
37 30 44
37 31 21
37 32 34
37 33 15
37 34 12
37 35 24
37 36 25
38 0 45
38 1 24
38 2 4
38 3 46
38 4 19
38 5 5
38 6 18
38 7 46
38 8 47
38 9 48
38 10 26
38 11 46
38 12 1
38 13 7
38 14 49
38 15 10
38 16 15
38 17 33
38 18 9
38 19 50
38 20 32
38 21 12
38 22 41
38 23 19
38 24 30
38 25 34
38 26 45
38 27 29
38 28 8
38 29 9
38 30 9
38 31 26
38 32 7
38 33 2
38 34 27
38 35 38
38 36 18
38 37 19
39 0 17
39 1 38
39 2 16
39 3 34
39 4 3
39 5 28
39 6 9
39 7 33
39 8 40
39 9 6
39 10 11
39 11 25
39 12 47
39 13 44
39 14 6
39 15 23
39 16 31
39 17 19
39 18 27
39 19 23
39 20 36
39 21 46
39 22 14
39 23 10
39 24 49
39 25 32
39 26 22
39 27 37
39 28 12
39 29 26
39 30 37
39 31 48
39 32 21
39 33 3
39 34 46
39 35 38
39 36 40
39 37 42
39 38 29
40 0 21
40 1 38
40 2 5
40 3 10
40 4 19
40 5 3
40 6 48
40 7 4
40 8 6
40 9 23
40 10 6
40 11 20
40 12 4
40 13 44
40 14 47
40 15 33
40 16 43
40 17 33
40 18 22
40 19 16
40 20 6
40 21 39
40 22 29
40 23 5
40 24 29
40 25 38
40 26 31
40 27 32
40 28 34
40 29 32
40 30 41
40 31 14
40 32 11
40 33 29
40 34 21
40 35 2
40 36 12
40 37 34
40 38 44
40 39 16
41 0 8
41 1 7
41 2 40
41 3 39
41 4 31
41 5 41
41 6 41
41 7 16
41 8 34
41 9 47
41 10 33
41 11 15
41 12 21
41 13 20
41 14 50
41 15 17
41 16 45
41 17 47
41 18 37
41 19 12
41 20 8
41 21 8
41 22 50
41 23 3
41 24 36
41 25 2
41 26 1
41 27 17
41 28 34
41 29 33
41 30 16
41 31 36
41 32 19
41 33 6
41 34 22
41 35 48
41 36 19
41 37 42
41 38 28
41 39 33
41 40 47
42 0 38
42 1 7
42 2 20
42 3 31
42 4 10
42 5 20
42 6 6
42 7 16
42 8 22
42 9 46
42 10 39
42 11 1
42 12 49
42 13 8
42 14 41
42 15 17
42 16 19
42 17 16
42 18 42
42 19 47
42 20 50
42 21 3
42 22 30
42 23 15
42 24 50
42 25 40
42 26 8
42 27 36
42 28 25
42 29 46
42 30 44
42 31 32
42 32 39
42 33 32
42 34 21
42 35 11
42 36 34
42 37 43
42 38 13
42 39 47
42 40 50
42 41 47
43 0 3
43 1 9
43 2 10
43 3 13
43 4 47
43 5 5
43 6 37
43 7 12
43 8 42
43 9 40
43 10 14
43 11 36
43 12 6
43 13 3
43 14 39
43 15 19
43 16 4
43 17 1
43 18 1
43 19 15
43 20 21
43 21 19
43 22 35
43 23 45
43 24 26
43 25 10
43 26 5
43 27 41
43 28 8
43 29 21
43 30 2
43 31 32
43 32 48
43 33 24
43 34 36
43 35 18
43 36 36
43 37 34
43 38 27
43 39 49
43 40 33
43 41 22
43 42 1
44 0 39
44 1 38
44 2 18
44 3 20
44 4 8
44 5 10
44 6 29
44 7 32
44 8 34
44 9 16
44 10 14
44 11 39
44 12 19
44 13 24
44 14 47
44 15 43
44 16 2
44 17 10
44 18 49
44 19 6
44 20 47
44 21 48
44 22 30
44 23 39
44 24 27
44 25 42
44 26 7
44 27 45
44 28 50
44 29 45
44 30 20
44 31 7
44 32 26
44 33 31
44 34 17
44 35 6
44 36 31
44 37 12
44 38 25
44 39 7
44 40 24
44 41 34
44 42 44
44 43 5
45 0 13
45 1 9
45 2 5
45 3 48
45 4 23
45 5 5
45 6 8
45 7 13
45 8 31
45 9 19
45 10 1
45 11 13
45 12 40
45 13 33
45 14 48
45 15 3
45 16 48
45 17 3
45 18 22
45 19 15
45 20 37
45 21 48
45 22 24
45 23 43
45 24 32
45 25 29
45 26 29
45 27 7
45 28 23
45 29 2
45 30 5
45 31 6
45 32 18
45 33 49
45 34 27
45 35 19
45 36 5
45 37 21
45 38 43
45 39 20
45 40 18
45 41 47
45 42 43
45 43 8
45 44 48
46 0 35
46 1 47
46 2 35
46 3 26
46 4 36
46 5 23
46 6 20
46 7 44
46 8 22
46 9 28
46 10 32
46 11 19
46 12 30
46 13 14
46 14 27
46 15 37
46 16 36
46 17 1
46 18 47
46 19 47
46 20 6
46 21 11
46 22 25
46 23 48
46 24 43
46 25 10
46 26 40
46 27 26
46 28 5
46 29 44
46 30 45
46 31 29
46 32 50
46 33 49
46 34 26
46 35 17
46 36 8
46 37 23
46 38 45
46 39 41
46 40 35
46 41 24
46 42 3
46 43 10
46 44 7
46 45 27
47 0 49
47 1 26
47 2 17
47 3 47
47 4 42
47 5 39
47 6 9
47 7 4
47 8 22
47 9 1
47 10 39
47 11 19
47 12 21
47 13 8
47 14 21
47 15 12
47 16 42
47 17 40
47 18 30
47 19 9
47 20 22
47 21 48
47 22 28
47 23 18
47 24 11
47 25 39
47 26 31
47 27 13
47 28 29
47 29 26
47 30 45
47 31 39
47 32 7
47 33 8
47 34 10
47 35 7
47 36 29
47 37 44
47 38 20
47 39 1
47 40 28
47 41 49
47 42 26
47 43 32
47 44 17
47 45 43
47 46 5
48 0 28
48 1 33
48 2 18
48 3 43
48 4 28
48 5 9
48 6 33
48 7 29
48 8 47
48 9 12
48 10 12
48 11 43
48 12 44
48 13 1
48 14 40
48 15 43
48 16 38
48 17 12
48 18 48
48 19 29
48 20 46
48 21 44
48 22 28
48 23 7
48 24 36
48 25 43
48 26 18
48 27 40
48 28 10
48 29 11
48 30 32
48 31 11
48 32 35
48 33 36
48 34 21
48 35 45
48 36 5
48 37 27
48 38 21
48 39 34
48 40 40
48 41 31
48 42 45
48 43 5
48 44 8
48 45 46
48 46 20
48 47 31
49 0 23
49 1 19
49 2 10
49 3 15
49 4 20
49 5 39
49 6 11
49 7 15
49 8 31
49 9 13
49 10 10
49 11 10
49 12 3
49 13 31
49 14 47
49 15 15
49 16 38
49 17 24
49 18 25
49 19 2
49 20 29
49 21 46
49 22 43
49 23 27
49 24 9
49 25 12
49 26 23
49 27 31
49 28 41
49 29 48
49 30 25
49 31 46
49 32 2
49 33 1
49 34 44
49 35 1
49 36 23
49 37 3
49 38 16
49 39 35
49 40 37
49 41 10
49 42 8
49 43 26
49 44 50
49 45 22
49 46 21
49 47 28
49 48 46
